33D32945 STP File, STP Format Version 1.0

SECTION Comments
Name "edge_n14_d4_s50"
Problem "Euclidean Steiner Tree Problem"
Remark "Generated with STPGenerator. 4 dimensions."
END

SECTION Graph
Nodes 14
END

SECTION Coordinates
DDDD 0 0.8943212232 0.8943212232 0.8943212232 0.8943212232
DDDD 1 0.6286429756 0.6286429756 0.6286429756 0.6286429756
DDDD 2 0.1040961771 0.1040961771 0.1040961771 0.1040961771
DDDD 3 0.9758517360 0.9758517360 0.9758517360 0.9758517360
DDDD 4 0.6714702508 0.6714702508 0.6714702508 0.6714702508
DDDD 5 0.5076044628 0.5076044628 0.5076044628 0.5076044628
DDDD 6 0.0156422849 0.0156422849 0.0156422849 0.0156422849
DDDD 7 0.2154678540 0.2154678540 0.2154678540 0.2154678540
DDDD 8 0.2348691641 0.2348691641 0.2348691641 0.2348691641
DDDD 9 0.1913313205 0.1913313205 0.1913313205 0.1913313205
DDDD 10 0.4307993098 0.4307993098 0.4307993098 0.4307993098
DDDD 11 0.5479775013 0.5479775013 0.5479775013 0.5479775013
DDDD 12 0.0151233026 0.0151233026 0.0151233026 0.0151233026
DDDD 13 0.0380932228 0.0380932228 0.0380932228 0.0380932228
END
